p wcnf 144 171 172 
1 25 96 0 
1 -48 -81 0 
1 122 -78 0 
1 1 -130 0 
1 28 -19 0 
1 -133 -91 0 
1 -1 88 0 
1 -9 -130 0 
1 -32 -67 0 
1 -1 -21 0 
1 -106 120 0 
1 -124 80 0 
1 12 44 0 
1 98 -34 0 
1 -31 75 0 
1 37 97 0 
1 137 -66 0 
1 -122 42 0 
1 -79 -2 0 
1 -141 -112 0 
1 73 -75 0 
1 4 114 0 
1 -125 132 0 
1 20 -2 0 
1 136 -130 0 
1 112 37 0 
1 50 140 0 
1 21 -4 0 
1 140 121 0 
1 -115 90 0 
1 -30 -101 0 
1 -77 -130 0 
1 -88 13 0 
1 65 62 0 
1 -77 -13 0 
1 -78 -60 0 
1 -142 -35 0 
1 -76 -108 0 
1 13 72 0 
1 -130 29 0 
1 -74 -121 0 
1 95 96 0 
1 142 92 0 
1 -99 37 0 
1 -129 121 0 
1 -102 -124 0 
1 -75 141 0 
1 142 -58 0 
1 -124 -77 0 
1 -35 -57 0 
1 -55 -116 0 
1 139 -108 0 
1 2 -14 0 
1 -29 59 0 
1 -29 -48 0 
1 -128 -69 0 
1 -111 -93 0 
1 3 -61 0 
1 -139 125 0 
1 -122 131 0 
1 39 13 0 
1 -90 88 0 
1 37 34 0 
1 131 -25 0 
1 -99 -94 0 
1 -102 -36 0 
1 113 -39 0 
1 -39 96 0 
1 66 -8 0 
1 98 -8 0 
1 -9 15 0 
1 55 -98 0 
1 74 -39 0 
1 -26 82 0 
1 61 21 0 
1 39 13 0 
1 -37 -54 0 
1 -112 -6 0 
1 -103 126 0 
1 -138 66 0 
1 -5 135 0 
1 -23 -47 0 
1 53 -114 0 
1 -130 -124 0 
1 99 -140 0 
1 -96 36 0 
1 -39 17 0 
1 -103 122 0 
1 71 -133 0 
1 78 40 0 
1 20 -139 0 
1 73 -30 0 
1 -110 22 0 
1 -98 -79 0 
1 115 2 0 
1 -53 95 0 
1 -141 -134 0 
1 38 19 0 
1 8 66 0 
1 59 -16 0 
1 143 111 0 
1 87 -82 0 
1 -69 -59 0 
1 -114 -144 0 
1 -115 -17 0 
1 1 -95 0 
1 -28 42 0 
1 -63 -117 0 
1 97 -19 0 
1 4 33 0 
1 95 -72 0 
1 -52 140 0 
1 76 8 0 
1 -126 -92 0 
1 -122 -78 0 
1 -39 18 0 
1 91 -87 0 
1 5 135 0 
1 -77 97 0 
1 91 -88 0 
1 -47 -121 0 
1 72 -65 0 
1 19 -73 0 
1 -144 -136 0 
1 -118 33 0 
1 -76 84 0 
1 98 109 0 
1 48 -35 0 
1 73 -127 0 
1 87 14 0 
1 122 -17 0 
1 -108 -68 0 
1 -89 64 0 
1 113 -17 0 
1 -103 -134 0 
1 57 -47 0 
1 10 43 0 
1 -49 118 0 
1 -129 -53 0 
1 -126 -76 0 
1 131 -89 0 
1 133 19 0 
1 112 -100 0 
1 13 -14 0 
1 -143 -20 0 
1 111 -1 0 
1 -46 -85 0 
1 129 -60 0 
1 -136 -41 0 
1 126 -67 0 
1 -140 -112 0 
1 18 -1 0 
1 -25 -64 0 
1 -23 6 0 
1 -84 80 0 
1 6 58 0 
1 -51 69 0 
1 135 -137 0 
1 35 32 0 
1 13 -60 0 
1 -104 138 0 
1 -135 -125 0 
1 -44 -49 0 
1 48 -27 0 
1 -132 -75 0 
1 71 49 0 
1 -114 106 0 
1 15 -108 0 
1 -43 -86 0 
1 -132 66 0 
1 56 29 0 
